exercise-03/busyctr/model/design_smt2.smt2
; SMT-LIBv2 description generated by Yosys 0.18 (git sha1 19ce3b45d6, gcc 11.3.0 -fPIC -Os)
; yosys-smt2-module busyctr
(declare-sort |busyctr_s| 0)
(declare-fun |busyctr_is| (|busyctr_s|) Bool)
(declare-fun |busyctr#0| (|busyctr_s|) (_ BitVec 1)) ; \o_busy
; yosys-smt2-output o_busy 1
; yosys-smt2-register o_busy 1
; yosys-smt2-wire o_busy 1
(define-fun |busyctr_n o_busy| ((state |busyctr_s|)) Bool (= ((_ extract 0 0) (|busyctr#0| state)) #b1))
(declare-fun |busyctr#1| (|busyctr_s|) Bool) ; \i_start_signal
; yosys-smt2-input i_start_signal 1
; yosys-smt2-wire i_start_signal 1
(define-fun |busyctr_n i_start_signal| ((state |busyctr_s|)) Bool (|busyctr#1| state))
(declare-fun |busyctr#2| (|busyctr_s|) Bool) ; \i_reset
; yosys-smt2-input i_reset 1
; yosys-smt2-wire i_reset 1
(define-fun |busyctr_n i_reset| ((state |busyctr_s|)) Bool (|busyctr#2| state))
(declare-fun |busyctr#3| (|busyctr_s|) Bool) ; \i_clk
; yosys-smt2-input i_clk 1
; yosys-smt2-wire i_clk 1
; yosys-smt2-clock i_clk posedge
(define-fun |busyctr_n i_clk| ((state |busyctr_s|)) Bool (|busyctr#3| state))
(declare-fun |busyctr#4| (|busyctr_s|) (_ BitVec 3)) ; { \counter [4] \counter [2] \counter [0] }
(declare-fun |busyctr#5| (|busyctr_s|) (_ BitVec 13)) ; { \counter [15:5] \counter [3] \counter [1] }
; yosys-smt2-register counter 16
; yosys-smt2-wire counter 16
(define-fun |busyctr_n counter| ((state |busyctr_s|)) (_ BitVec 16) (concat ((_ extract 12 2) (|busyctr#5| state)) (concat ((_ extract 2 2) (|busyctr#4| state)) (concat ((_ extract 1 1) (|busyctr#5| state)) (concat ((_ extract 1 1) (|busyctr#4| state)) (concat ((_ extract 0 0) (|busyctr#5| state)) ((_ extract 0 0) (|busyctr#4| state))))))))
(declare-fun |busyctr#6| (|busyctr_s|) (_ BitVec 1)) ; $past$busyctr.v:96$1$0
; yosys-smt2-register $past$busyctr.v:96$1$0 1
(define-fun |busyctr_n $past$busyctr.v:96$1$0| ((state |busyctr_s|)) Bool (= ((_ extract 0 0) (|busyctr#6| state)) #b1))
(declare-fun |busyctr#7| (|busyctr_s|) (_ BitVec 16)) ; $past$busyctr.v:109$2$0
; yosys-smt2-register $past$busyctr.v:109$2$0 16
(define-fun |busyctr_n $past$busyctr.v:109$2$0| ((state |busyctr_s|)) (_ BitVec 16) (|busyctr#7| state))
(declare-fun |busyctr#8| (|busyctr_s|) (_ BitVec 1)) ; $formal$busyctr.v:108$6_EN
; yosys-smt2-register $formal$busyctr.v:108$6_EN 1
(define-fun |busyctr_n $formal$busyctr.v:108$6_EN| ((state |busyctr_s|)) Bool (= ((_ extract 0 0) (|busyctr#8| state)) #b1))
(declare-fun |busyctr#9| (|busyctr_s|) (_ BitVec 1)) ; $formal$busyctr.v:108$6_CHECK
; yosys-smt2-register $formal$busyctr.v:108$6_CHECK 1
(define-fun |busyctr_n $formal$busyctr.v:108$6_CHECK| ((state |busyctr_s|)) Bool (= ((_ extract 0 0) (|busyctr#9| state)) #b1))
(declare-fun |busyctr#10| (|busyctr_s|) (_ BitVec 1)) ; $formal$busyctr.v:103$5_EN
; yosys-smt2-register $formal$busyctr.v:103$5_EN 1
(define-fun |busyctr_n $formal$busyctr.v:103$5_EN| ((state |busyctr_s|)) Bool (= ((_ extract 0 0) (|busyctr#10| state)) #b1))
(declare-fun |busyctr#11| (|busyctr_s|) (_ BitVec 1)) ; $formal$busyctr.v:103$5_CHECK
; yosys-smt2-register $formal$busyctr.v:103$5_CHECK 1
(define-fun |busyctr_n $formal$busyctr.v:103$5_CHECK| ((state |busyctr_s|)) Bool (= ((_ extract 0 0) (|busyctr#11| state)) #b1))
(declare-fun |busyctr#12| (|busyctr_s|) (_ BitVec 1)) ; $formal$busyctr.v:101$4_EN
; yosys-smt2-register $formal$busyctr.v:101$4_EN 1
(define-fun |busyctr_n $formal$busyctr.v:101$4_EN| ((state |busyctr_s|)) Bool (= ((_ extract 0 0) (|busyctr#12| state)) #b1))
(declare-fun |busyctr#13| (|busyctr_s|) (_ BitVec 1)) ; $formal$busyctr.v:101$4_CHECK
; yosys-smt2-register $formal$busyctr.v:101$4_CHECK 1
(define-fun |busyctr_n $formal$busyctr.v:101$4_CHECK| ((state |busyctr_s|)) Bool (= ((_ extract 0 0) (|busyctr#13| state)) #b1))
; yosys-smt2-anyseq busyctr#14 1 $auto$setundef.cc:501:execute$105
(declare-fun |busyctr#14| (|busyctr_s|) (_ BitVec 1)) ; $auto$rtlil.cc:3130:Anyseq$106
(define-fun |busyctr#15| ((state |busyctr_s|)) Bool (and (or  (= ((_ extract 0 0) (|busyctr#6| state)) #b1) false) (or  (= ((_ extract 0 0) (|busyctr#0| state)) #b1) false))) ; $logic_and$busyctr.v:96$20_Y
(define-fun |busyctr#16| ((state |busyctr_s|)) (_ BitVec 1) (ite (|busyctr#15| state) (ite (|busyctr#1| state) #b1 #b0) (|busyctr#14| state))) ; $0$formal$busyctr.v:96$3_CHECK[0:0]$18
(define-fun |busyctr#17| ((state |busyctr_s|)) (_ BitVec 1) (ite (|busyctr#15| state) #b1 #b0)) ; $0$formal$busyctr.v:96$3_EN[0:0]$19
; yosys-smt2-assume 0 $assume$busyctr.v:96$39 busyctr.v:96.44-97.35
(define-fun |busyctr_u 0| ((state |busyctr_s|)) Bool (or (= ((_ extract 0 0) (|busyctr#16| state)) #b1) (not (= ((_ extract 0 0) (|busyctr#17| state)) #b1)))) ; $assume$busyctr.v:96$39
; yosys-smt2-assert 0 $assert$busyctr.v:108$42 busyctr.v:108.70-109.50
(define-fun |busyctr_a 0| ((state |busyctr_s|)) Bool (or (= ((_ extract 0 0) (|busyctr#9| state)) #b1) (not (= ((_ extract 0 0) (|busyctr#8| state)) #b1)))) ; $assert$busyctr.v:108$42
; yosys-smt2-assert 1 $assert$busyctr.v:103$41 busyctr.v:103.13-104.28
(define-fun |busyctr_a 1| ((state |busyctr_s|)) Bool (or (= ((_ extract 0 0) (|busyctr#11| state)) #b1) (not (= ((_ extract 0 0) (|busyctr#10| state)) #b1)))) ; $assert$busyctr.v:103$41
; yosys-smt2-assert 2 $assert$busyctr.v:101$40 busyctr.v:101.26-102.27
(define-fun |busyctr_a 2| ((state |busyctr_s|)) Bool (or (= ((_ extract 0 0) (|busyctr#13| state)) #b1) (not (= ((_ extract 0 0) (|busyctr#12| state)) #b1)))) ; $assert$busyctr.v:101$40
; yosys-smt2-anyseq busyctr#18 1 $auto$setundef.cc:501:execute$101
(declare-fun |busyctr#18| (|busyctr_s|) (_ BitVec 1)) ; $auto$rtlil.cc:3130:Anyseq$102
(define-fun |busyctr#19| ((state |busyctr_s|)) Bool (distinct (concat ((_ extract 12 2) (|busyctr#5| state)) (concat ((_ extract 2 2) (|busyctr#4| state)) (concat ((_ extract 1 1) (|busyctr#5| state)) (concat ((_ extract 1 1) (|busyctr#4| state)) (concat ((_ extract 0 0) (|busyctr#5| state)) ((_ extract 0 0) (|busyctr#4| state))))))) #b0000000000000000)) ; $ne$busyctr.v:101$26_Y
(define-fun |busyctr#20| ((state |busyctr_s|)) (_ BitVec 1) (ite (|busyctr#19| state) (|busyctr#0| state) (|busyctr#18| state))) ; $0$formal$busyctr.v:101$4_CHECK[0:0]$22
(define-fun |busyctr#21| ((state |busyctr_s|)) (_ BitVec 1) (ite (|busyctr#19| state) #b1 #b0)) ; $0$formal$busyctr.v:101$4_EN[0:0]$23
(define-fun |busyctr#22| ((state |busyctr_s|)) Bool (not (or  (= ((_ extract 0 0) (|busyctr#0| state)) #b1) false))) ; $logic_not$busyctr.v:104$27_Y
; yosys-smt2-anyseq busyctr#23 1 $auto$setundef.cc:501:execute$103
(declare-fun |busyctr#23| (|busyctr_s|) (_ BitVec 1)) ; $auto$rtlil.cc:3130:Anyseq$104
(define-fun |busyctr#24| ((state |busyctr_s|)) (_ BitVec 1) (ite (|busyctr#19| state) (|busyctr#23| state) (ite (|busyctr#22| state) #b1 #b0))) ; $0$formal$busyctr.v:103$5_CHECK[0:0]$24
(define-fun |busyctr#25| ((state |busyctr_s|)) (_ BitVec 1) (ite (|busyctr#19| state) #b0 #b1)) ; $0$formal$busyctr.v:103$5_EN[0:0]$25
; yosys-smt2-anyseq busyctr#26 1 $auto$setundef.cc:501:execute$99
(declare-fun |busyctr#26| (|busyctr_s|) (_ BitVec 1)) ; $auto$rtlil.cc:3130:Anyseq$100
(define-fun |busyctr#27| ((state |busyctr_s|)) (_ BitVec 17) (bvsub (concat #b0 (|busyctr#7| state)) #b00000000000000001)) ; { $sub$busyctr.v:109$37_Y [31] $sub$busyctr.v:109$37_Y [15:0] }
(define-fun |busyctr#28| ((state |busyctr_s|)) Bool (= (concat #b0000000000000000 (concat ((_ extract 12 2) (|busyctr#5| state)) (concat ((_ extract 2 2) (|busyctr#4| state)) (concat ((_ extract 1 1) (|busyctr#5| state)) (concat ((_ extract 1 1) (|busyctr#4| state)) (concat ((_ extract 0 0) (|busyctr#5| state)) ((_ extract 0 0) (|busyctr#4| state)))))))) (concat ((_ extract 16 16) (|busyctr#27| state)) (concat ((_ extract 16 16) (|busyctr#27| state)) (concat ((_ extract 16 16) (|busyctr#27| state)) (concat ((_ extract 16 16) (|busyctr#27| state)) (concat ((_ extract 16 16) (|busyctr#27| state)) (concat ((_ extract 16 16) (|busyctr#27| state)) (concat ((_ extract 16 16) (|busyctr#27| state)) (concat ((_ extract 16 16) (|busyctr#27| state)) (concat ((_ extract 16 16) (|busyctr#27| state)) (concat ((_ extract 16 16) (|busyctr#27| state)) (concat ((_ extract 16 16) (|busyctr#27| state)) (concat ((_ extract 16 16) (|busyctr#27| state)) (concat ((_ extract 16 16) (|busyctr#27| state)) (concat ((_ extract 16 16) (|busyctr#27| state)) (concat ((_ extract 16 16) (|busyctr#27| state)) (|busyctr#27| state)))))))))))))))))) ; $eq$busyctr.v:109$38_Y
(define-fun |busyctr#29| ((state |busyctr_s|)) Bool (not (or  (|busyctr#2| state) false))) ; $logic_not$busyctr.v:108$33_Y
(define-fun |busyctr#30| ((state |busyctr_s|)) Bool (and (or  (|busyctr#19| state) false) (or  (|busyctr#29| state) false))) ; $logic_and$busyctr.v:108$34_Y
(define-fun |busyctr#31| ((state |busyctr_s|)) Bool (distinct (concat ((_ extract 12 2) (|busyctr#5| state)) (concat ((_ extract 2 2) (|busyctr#4| state)) (concat ((_ extract 1 1) (|busyctr#5| state)) (concat ((_ extract 1 1) (|busyctr#4| state)) (concat ((_ extract 0 0) (|busyctr#5| state)) ((_ extract 0 0) (|busyctr#4| state))))))) #b0000000000010101)) ; $ne$busyctr.v:108$35_Y
(define-fun |busyctr#32| ((state |busyctr_s|)) Bool (and (or  (|busyctr#30| state) false) (or  (|busyctr#31| state) false))) ; $logic_and$busyctr.v:108$36_Y
(define-fun |busyctr#33| ((state |busyctr_s|)) (_ BitVec 1) (ite (|busyctr#32| state) (ite (|busyctr#28| state) #b1 #b0) (|busyctr#26| state))) ; $0$formal$busyctr.v:108$6_CHECK[0:0]$30
(define-fun |busyctr#34| ((state |busyctr_s|)) (_ BitVec 1) (ite (|busyctr#32| state) #b1 #b0)) ; $0$formal$busyctr.v:108$6_EN[0:0]$31
(define-fun |busyctr#35| ((state |busyctr_s|)) (_ BitVec 16) (bvsub (concat ((_ extract 12 2) (|busyctr#5| state)) (concat ((_ extract 2 2) (|busyctr#4| state)) (concat ((_ extract 1 1) (|busyctr#5| state)) (concat ((_ extract 1 1) (|busyctr#4| state)) (concat ((_ extract 0 0) (|busyctr#5| state)) ((_ extract 0 0) (|busyctr#4| state))))))) #b0000000000000001)) ; $sub$busyctr.v:71$11_Y
(define-fun |busyctr#36| ((state |busyctr_s|)) (_ BitVec 13) (ite (|busyctr#19| state) (concat ((_ extract 15 5) (|busyctr#35| state)) (concat ((_ extract 3 3) (|busyctr#35| state)) ((_ extract 1 1) (|busyctr#35| state)))) (|busyctr#5| state))) ; $auto$rtlil.cc:2456:Mux$123
(define-fun |busyctr#37| ((state |busyctr_s|)) Bool (not (or  (= ((_ extract 0 0) (|busyctr#4| state)) #b1) (= ((_ extract 0 0) (|busyctr#5| state)) #b1) (= ((_ extract 1 1) (|busyctr#4| state)) #b1) (= ((_ extract 1 1) (|busyctr#5| state)) #b1) (= ((_ extract 2 2) (|busyctr#4| state)) #b1) (= ((_ extract 2 2) (|busyctr#5| state)) #b1) (= ((_ extract 3 3) (|busyctr#5| state)) #b1) (= ((_ extract 4 4) (|busyctr#5| state)) #b1) (= ((_ extract 5 5) (|busyctr#5| state)) #b1) (= ((_ extract 6 6) (|busyctr#5| state)) #b1) (= ((_ extract 7 7) (|busyctr#5| state)) #b1) (= ((_ extract 8 8) (|busyctr#5| state)) #b1) (= ((_ extract 9 9) (|busyctr#5| state)) #b1) (= ((_ extract 10 10) (|busyctr#5| state)) #b1) (= ((_ extract 11 11) (|busyctr#5| state)) #b1) (= ((_ extract 12 12) (|busyctr#5| state)) #b1)))) ; $eq$busyctr.v:68$8_Y
(define-fun |busyctr#38| ((state |busyctr_s|)) Bool (and (or  (|busyctr#1| state) false) (or  (|busyctr#37| state) false))) ; $logic_and$busyctr.v:68$9_Y
(define-fun |busyctr#39| ((state |busyctr_s|)) Bool (or  (|busyctr#2| state) (|busyctr#38| state))) ; $auto$opt_dff.cc:253:combine_resets$109
(define-fun |busyctr#40| ((state |busyctr_s|)) (_ BitVec 13) (ite (|busyctr#39| state) #b0000000000000 (|busyctr#36| state))) ; $auto$rtlil.cc:2456:Mux$125
(define-fun |busyctr#41| ((state |busyctr_s|)) (_ BitVec 16) (ite (|busyctr#19| state) (|busyctr#35| state) (concat ((_ extract 12 2) (|busyctr#5| state)) (concat #b0 (concat ((_ extract 1 1) (|busyctr#5| state)) (concat #b0 (concat ((_ extract 0 0) (|busyctr#5| state)) #b0))))))) ; $procmux$79_Y
(define-fun |busyctr#42| ((state |busyctr_s|)) (_ BitVec 16) (ite (|busyctr#38| state) #b0000000000010101 (|busyctr#41| state))) ; $procmux$82_Y
(define-fun |busyctr#43| ((state |busyctr_s|)) Bool (or  (|busyctr#38| state) (|busyctr#19| state))) ; $auto$opt_dff.cc:194:make_patterns_logic$113
(define-fun |busyctr#44| ((state |busyctr_s|)) (_ BitVec 3) (ite (|busyctr#43| state) (concat ((_ extract 4 4) (|busyctr#42| state)) (concat ((_ extract 2 2) (|busyctr#42| state)) ((_ extract 0 0) (|busyctr#42| state)))) (|busyctr#4| state))) ; $auto$rtlil.cc:2456:Mux$119
(define-fun |busyctr#45| ((state |busyctr_s|)) (_ BitVec 3) (ite (|busyctr#2| state) #b000 (|busyctr#44| state))) ; $auto$rtlil.cc:2456:Mux$121
(define-fun |busyctr#46| ((state |busyctr_s|)) (_ BitVec 1) (ite (|busyctr#37| state) (ite (|busyctr#1| state) #b1 #b0) #b1)) ; $procmux$74_Y
(define-fun |busyctr#47| ((state |busyctr_s|)) Bool (= (concat ((_ extract 12 2) (|busyctr#5| state)) (concat ((_ extract 2 2) (|busyctr#4| state)) (concat ((_ extract 1 1) (|busyctr#5| state)) (concat ((_ extract 1 1) (|busyctr#4| state)) (concat ((_ extract 0 0) (|busyctr#5| state)) ((_ extract 0 0) (|busyctr#4| state))))))) #b0000000000000001)) ; $eq$busyctr.v:80$13_Y
(define-fun |busyctr#48| ((state |busyctr_s|)) Bool (or  (|busyctr#2| state) false  (|busyctr#47| state) false)) ; $logic_or$busyctr.v:80$14_Y
(define-fun |busyctr#49| ((state |busyctr_s|)) (_ BitVec 1) (ite (|busyctr#48| state) #b0 (|busyctr#46| state))) ; $auto$rtlil.cc:2456:Mux$117
(define-fun |busyctr_a| ((state |busyctr_s|)) Bool (and
  (|busyctr_a 0| state)
  (|busyctr_a 1| state)
  (|busyctr_a 2| state)
))
(define-fun |busyctr_u| ((state |busyctr_s|)) Bool 
  (|busyctr_u 0| state)
)
(define-fun |busyctr_i| ((state |busyctr_s|)) Bool (and
  (= (= ((_ extract 0 0) (|busyctr#0| state)) #b1) false) ; o_busy
  (= (concat ((_ extract 12 2) (|busyctr#5| state)) (concat ((_ extract 2 2) (|busyctr#4| state)) (concat ((_ extract 1 1) (|busyctr#5| state)) (concat ((_ extract 1 1) (|busyctr#4| state)) (concat ((_ extract 0 0) (|busyctr#5| state)) ((_ extract 0 0) (|busyctr#4| state))))))) #b0000000000000000) ; counter
  (= (= ((_ extract 0 0) (|busyctr#8| state)) #b1) false) ; $formal$busyctr.v:108$6_EN
  (= (= ((_ extract 0 0) (|busyctr#10| state)) #b1) false) ; $formal$busyctr.v:103$5_EN
  (= (= ((_ extract 0 0) (|busyctr#12| state)) #b1) false) ; $formal$busyctr.v:101$4_EN
))
(define-fun |busyctr_h| ((state |busyctr_s|)) Bool true)
(define-fun |busyctr_t| ((state |busyctr_s|) (next_state |busyctr_s|)) Bool (and
  (= (|busyctr#20| state) (|busyctr#13| next_state)) ; $procdff$90 $formal$busyctr.v:101$4_CHECK
  (= (|busyctr#21| state) (|busyctr#12| next_state)) ; $procdff$91 $formal$busyctr.v:101$4_EN
  (= (|busyctr#24| state) (|busyctr#11| next_state)) ; $procdff$92 $formal$busyctr.v:103$5_CHECK
  (= (|busyctr#25| state) (|busyctr#10| next_state)) ; $procdff$93 $formal$busyctr.v:103$5_EN
  (= (|busyctr#33| state) (|busyctr#9| next_state)) ; $procdff$88 $formal$busyctr.v:108$6_CHECK
  (= (|busyctr#34| state) (|busyctr#8| next_state)) ; $procdff$89 $formal$busyctr.v:108$6_EN
  (= (concat ((_ extract 12 2) (|busyctr#5| state)) (concat ((_ extract 2 2) (|busyctr#4| state)) (concat ((_ extract 1 1) (|busyctr#5| state)) (concat ((_ extract 1 1) (|busyctr#4| state)) (concat ((_ extract 0 0) (|busyctr#5| state)) ((_ extract 0 0) (|busyctr#4| state))))))) (|busyctr#7| next_state)) ; $procdff$87 $past$busyctr.v:109$2$0
  (= (ite (|busyctr#1| state) #b1 #b0) (|busyctr#6| next_state)) ; $procdff$94 $past$busyctr.v:96$1$0
  (= (|busyctr#40| state) (|busyctr#5| next_state)) ; $auto$ff.cc:262:slice$111 { \counter [15:5] \counter [3] \counter [1] }
  (= (|busyctr#45| state) (|busyctr#4| next_state)) ; $auto$ff.cc:262:slice$112 { \counter [4] \counter [2] \counter [0] }
  (= (|busyctr#49| state) (|busyctr#0| next_state)) ; $auto$ff.cc:262:slice$115 \o_busy
)) ; end of module busyctr
; yosys-smt2-topmod busyctr
; end of yosys output
